(set-info :origin "Horn problem converted to SMT-LIB2 using Eldarica (https://github.com/uuverifiers/eldarica)")
(set-logic HORN)
(declare-fun INV_MAIN_0 (Int Int Int Int Int Int Int Int) Bool)
(declare-fun INV_MAIN_1 (Int Int Int Int Int Int Int Int Int Int Int) Bool)
(assert (forall ((A Int) (B Int) (C Int) (D Int) (E Int) (F Int) (G Int) (H Int))(=> (and (and (not (and (= G C) (not (= H D)))) (= E B)) (= F A)) (INV_MAIN_0 A B C D E F G H))))
(assert (forall ((A Int) (B Int) (C Int) (D Int) (E Int) (F Int) (G Int) (H Int)) (not (and (and (and (and (INV_MAIN_0 A B C D E F G H) (not (= H 0))) (= C B)) (= D 0)) (= G E)))))
(assert (forall ((A Int) (B Int) (C Int) (D Int) (E Int) (F Int) (G Int) (H Int)) (not (and (and (and (and (INV_MAIN_0 A B C D E F G H) (not (= D 0))) (= C B)) (= G E)) (= H 0)))))
(assert (forall ((A Int) (B Int) (C Int) (D Int) (E Int) (F Int) (G Int) (H Int) (I Int) (J Int) (K Int) (L Int) (M Int) (N Int) (O Int) (P Int) (Q Int) (R Int) (S Int) (T Int) (U Int) (V Int) (W Int) (X Int) (Y Int) (Z Int) (A1 Int) (B1 Int) (C1 Int) (D1 Int) (E1 Int) (F1 Int)) (not (and (and (and (and (and (and (and (and (and (and (and (and (and (and (and (and (and (and (and (and (and (and (and (and (and (and (and (and (and (and (and (INV_MAIN_0 A B C D E F G H) (INV_MAIN_0 I J K L M N O P)) (INV_MAIN_0 Q R S T U V W X)) (INV_MAIN_0 Y Z A1 B1 C1 D1 E1 F1)) (not (and (= A1 Z) (not (= B1 0))))) (not (and (= C1 A1) (not (= F1 0))))) (not (= F1 B1))) (= E1 A1)) (= Q Y)) (= R Z)) (= S A1)) (= T B1)) (= U C1)) (= V D1)) (= W C1)) (= X 0)) (= I Y)) (= J Z)) (= K Z)) (= L 0)) (= M C1)) (= N D1)) (= O A1)) (= P F1)) (= A Y)) (= B Z)) (= C Z)) (= D 0)) (= E C1)) (= F D1)) (= G C1)) (= H 0)))))
(assert (forall ((A Int) (B Int) (C Int) (D Int) (E Int) (F Int) (G Int) (H Int) (I Int) (J Int) (K Int) (L Int) (M Int) (N Int) (O Int) (P Int) (Q Int) (R Int) (S Int) (T Int) (U Int) (V Int) (W Int) (X Int) (Y Int) (Z Int) (A1 Int) (B1 Int) (C1 Int) (D1 Int) (E1 Int) (F1 Int) (G1 Int) (H1 Int) (I1 Int) (J1 Int) (K1 Int) (L1 Int) (M1 Int) (N1 Int) (O1 Int) (P1 Int) (Q1 Int))(=> (and (and (and (and (and (and (and (and (and (and (and (and (and (and (and (and (and (and (and (and (and (and (and (and (and (and (and (and (and (and (and (and (and (and (and (and (and (and (and (and (INV_MAIN_0 L M N O P Q R S) (INV_MAIN_0 T U V W X Y Z A1)) (INV_MAIN_0 B1 C1 D1 E1 F1 G1 H1 I1)) (INV_MAIN_0 J1 K1 L1 M1 N1 O1 P1 Q1)) (not (and (= D C) (not (= W E))))) (not (and (= (- J G) (- 1)) (not (= K F))))) (not (= F 0))) (not (= W 0))) (= B 0)) (= I H)) (= J1 A)) (= K1 C)) (= L1 D)) (= M1 E)) (= (- N1 G) (- 1))) (= O1 H)) (= P1 J)) (= Q1 K)) (= B1 A)) (= C1 C)) (= D1 D)) (= E1 E)) (= (- F1 G) (- 1))) (= G1 H)) (= (- H1 G) (- 1))) (= I1 F)) (= T A)) (= U C)) (= V C)) (= (- X G) (- 1))) (= Y H)) (= Z J)) (= A1 K)) (= L A)) (= M C)) (= N C)) (= O W)) (= (- P G) (- 1))) (= Q H)) (= (- R G) (- 1))) (= S F)) (INV_MAIN_1 A B C D E F G H I J K))))
(assert (forall ((A Int) (B Int) (C Int) (D Int) (E Int) (F Int) (G Int) (H Int) (I Int) (J Int) (K Int) (L Int) (M Int) (N Int) (O Int) (P Int) (Q Int) (R Int) (S Int) (T Int) (U Int) (V Int)) (not (and (and (and (and (and (and (and (and (and (and (and (and (and (and (and (and (INV_MAIN_1 A B C D E F G H I J K) (INV_MAIN_1 L M N O P Q R S T U V)) (not (= P 0))) (= O N)) (= U T)) (= V 0)) (= A L)) (= B M)) (= C N)) (= (+ D (- (* (- 1) M) L)) 0)) (= E P)) (= F Q)) (= G R)) (= H S)) (= I T)) (= J T)) (= K 0)))))
(assert (forall ((A Int) (B Int) (C Int) (D Int) (E Int) (F Int) (G Int) (H Int) (I Int) (J Int) (K Int)) (not (and (and (and (and (and (INV_MAIN_1 A B C D E F G H I J K) (not (= F 0))) (= (+ D (- (* (- 1) B) A)) 0)) (= E 0)) (= J I)) (= K F)))))
(assert (forall ((A Int) (B Int) (C Int) (D Int) (E Int) (F Int) (G Int) (H Int) (I Int) (J Int) (K Int) (L Int) (M Int) (N Int) (O Int) (P Int) (Q Int) (R Int) (S Int) (T Int) (U Int) (V Int)) (not (and (and (and (and (and (and (and (and (and (and (and (and (and (and (and (and (and (and (INV_MAIN_1 A B C D E F G H I J K) (INV_MAIN_1 L M N O P Q R S T U V)) (not (= P 0))) (not (= Q 0))) (not (= (- R N) 1))) (= O N)) (= U T)) (= V Q)) (= A L)) (= B M)) (= C N)) (= (+ D (- (* (- 1) M) L)) 0)) (= E P)) (= F Q)) (= G R)) (= H S)) (= I T)) (= J T)) (= K Q)))))
(assert (forall ((A Int) (B Int) (C Int) (D Int) (E Int) (F Int) (G Int) (H Int) (I Int) (J Int) (K Int) (L Int) (M Int) (N Int) (O Int) (P Int) (Q Int) (R Int) (S Int) (T Int) (U Int) (V Int) (W Int) (X Int) (Y Int) (Z Int) (A1 Int) (B1 Int) (C1 Int) (D1 Int) (E1 Int) (F1 Int) (G1 Int) (H1 Int) (I1 Int) (J1 Int) (K1 Int) (L1 Int) (M1 Int) (N1 Int) (O1 Int) (P1 Int) (Q1 Int) (R1 Int) (S1 Int) (T1 Int) (U1 Int) (V1 Int) (W1 Int) (X1 Int) (Y1 Int) (Z1 Int) (A2 Int) (B2 Int) (C2 Int) (D2 Int) (E2 Int) (F2 Int) (G2 Int) (H2 Int) (I2 Int) (J2 Int) (K2 Int) (L2 Int) (M2 Int) (N2 Int)) (not (and (and (and (and (and (and (and (and (and (and (and (and (and (and (and (and (and (and (and (and (and (and (and (and (and (and (and (and (and (and (and (and (and (and (and (and (and (and (and (and (and (and (and (and (and (and (and (and (and (and (and (and (and (and (and (and (and (and (and (and (and (and (and (and (and (and (INV_MAIN_1 A B C D E F G H I J K) (INV_MAIN_1 L M N O P Q R S T U V)) (INV_MAIN_1 W X Y Z A1 B1 C1 D1 E1 F1 G1)) (INV_MAIN_1 H1 I1 J1 K1 L1 M1 N1 O1 P1 Q1 R1)) (INV_MAIN_1 S1 T1 U1 V1 W1 X1 Y1 Z1 A2 B2 C2)) (INV_MAIN_1 D2 E2 F2 G2 H2 I2 J2 K2 L2 M2 N2)) (not (and (= (+ G2 (- (* (- 1) E2) D2)) 0) (not (= L1 H2))))) (not (and (= G2 F2) (not (= L1 H2))))) (not (and (= L2 G2) (not (= N2 I2))))) (not (= I2 0))) (not (= N2 H2))) (not (= L1 0))) (= M2 G2)) (= S1 D2)) (= T1 E2)) (= U1 F2)) (= V1 G2)) (= W1 H2)) (= X1 I2)) (= Y1 J2)) (= Z1 K2)) (= A2 L2)) (= B2 L2)) (= C2 I2)) (= H1 D2)) (= I1 E2)) (= J1 F2)) (= K1 F2)) (= M1 I2)) (= N1 J2)) (= O1 K2)) (= P1 L2)) (= Q1 G2)) (= R1 N2)) (= W D2)) (= X E2)) (= Y F2)) (= Z F2)) (= A1 L1)) (= B1 I2)) (= C1 J2)) (= D1 K2)) (= E1 L2)) (= F1 L2)) (= G1 I2)) (= L D2)) (= M E2)) (= N F2)) (= (+ O (- (* (- 1) E2) D2)) 0)) (= P L1)) (= Q I2)) (= R J2)) (= S K2)) (= T L2)) (= U G2)) (= V N2)) (= A D2)) (= B E2)) (= C F2)) (= (+ D (- (* (- 1) E2) D2)) 0)) (= E L1)) (= F I2)) (= G J2)) (= H K2)) (= I L2)) (= J L2)) (= K I2)))))
(assert (forall ((A Int) (B Int) (C Int) (D Int) (E Int) (F Int) (G Int) (H Int) (I Int) (J Int) (K Int) (L Int) (M Int) (N Int) (O Int) (P Int) (Q Int) (R Int) (S Int) (T Int) (U Int) (V Int) (W Int) (X Int) (Y Int) (Z Int) (A1 Int) (B1 Int) (C1 Int) (D1 Int) (E1 Int) (F1 Int) (G1 Int) (H1 Int) (I1 Int) (J1 Int) (K1 Int) (L1 Int) (M1 Int) (N1 Int) (O1 Int) (P1 Int) (Q1 Int) (R1 Int) (S1 Int) (T1 Int) (U1 Int) (V1 Int) (W1 Int) (X1 Int) (Y1 Int) (Z1 Int))(=> (and (and (and (and (and (and (and (and (and (and (and (and (and (and (and (and (and (and (and (and (and (and (and (and (and (and (and (and (and (and (and (and (and (and (and (and (and (and (and (and (and (and (and (and (and (and (INV_MAIN_1 I J K L M N O P Q R S) (INV_MAIN_1 T U V W X Y Z A1 B1 C1 D1)) (INV_MAIN_1 E1 F1 G1 H1 I1 J1 K1 L1 M1 N1 O1)) (INV_MAIN_1 P1 Q1 R1 S1 T1 U1 V1 W1 X1 Y1 Z1)) (not (and (= (+ Q1 (- A C)) 0) (not (= D 0))))) (not (and (= X1 G) (not (= H 0))))) (= P1 A)) (= (- R1 B) (- 1))) (= S1 C)) (= T1 D)) (= V1 E)) (= W1 F)) (= Y1 G)) (= Z1 H)) (= E1 A)) (= F1 Q1)) (= (- G1 B) (- 1))) (= H1 C)) (= I1 D)) (= J1 U1)) (= K1 E)) (= L1 F)) (= M1 X1)) (= N1 X1)) (= O1 0)) (= T A)) (= U Q1)) (= (- V B) (- 1))) (= (+ W (- (* (- 1) Q1) A)) 0)) (= X 0)) (= Y U1)) (= Z E)) (= A1 F)) (= B1 X1)) (= C1 G)) (= D1 H)) (= I A)) (= J Q1)) (= (- K B) (- 1))) (= (+ L (- (* (- 1) Q1) A)) 0)) (= M 0)) (= N U1)) (= O E)) (= P F)) (= Q X1)) (= R X1)) (= S 0)) (INV_MAIN_0 A B C D E F G H))))
(assert (forall ((A Int) (B Int) (C Int) (D Int) (E Int) (F Int) (G Int) (H Int) (I Int) (J Int) (K Int) (L Int) (M Int) (N Int) (O Int) (P Int) (Q Int) (R Int) (S Int) (T Int) (U Int) (V Int) (W Int) (X Int) (Y Int) (Z Int) (A1 Int) (B1 Int) (C1 Int) (D1 Int) (E1 Int) (F1 Int) (G1 Int) (H1 Int) (I1 Int) (J1 Int) (K1 Int) (L1 Int) (M1 Int) (N1 Int) (O1 Int) (P1 Int) (Q1 Int) (R1 Int) (S1 Int) (T1 Int) (U1 Int) (V1 Int) (W1 Int) (X1 Int) (Y1 Int) (Z1 Int) (A2 Int) (B2 Int) (C2 Int) (D2 Int) (E2 Int) (F2 Int) (G2 Int) (H2 Int) (I2 Int) (J2 Int) (K2 Int) (L2 Int) (M2 Int) (N2 Int) (O2 Int) (P2 Int) (Q2 Int) (R2 Int) (S2 Int) (T2 Int) (U2 Int) (V2 Int) (W2 Int) (X2 Int) (Y2 Int))(=> (and (and (and (and (and (and (and (and (and (and (and (and (and (and (and (and (and (and (and (and (and (and (and (and (and (and (and (and (and (and (and (and (and (and (and (and (and (and (and (and (and (and (and (and (and (and (and (and (and (and (and (and (and (and (and (and (and (and (and (and (and (and (and (and (and (and (and (and (and (and (and (and (and (and (and (and (INV_MAIN_1 L M N O P Q R S T U V) (INV_MAIN_1 W X Y Z A1 B1 C1 D1 E1 F1 G1)) (INV_MAIN_1 H1 I1 J1 K1 L1 M1 N1 O1 P1 Q1 R1)) (INV_MAIN_1 S1 T1 U1 V1 W1 X1 Y1 Z1 A2 B2 C2)) (INV_MAIN_1 D2 E2 F2 G2 H2 I2 J2 K2 L2 M2 N2)) (INV_MAIN_1 O2 P2 Q2 R2 S2 T2 U2 V2 W2 X2 Y2)) (not (and (= (+ D (- (* (- 1) B) A)) (- 1)) (not (= A1 E))))) (not (and (= D C) (not (= W1 E))))) (not (and (= (- J I) (- 1)) (not (= N2 K))))) (not (= (+ C (- (* (- 1) B) A)) (- 1)))) (not (= N2 0))) (not (= N2 F))) (not (= A1 0))) (not (= A1 W1))) (= O2 A)) (= (- P2 B) (- 1))) (= Q2 C)) (= R2 D)) (= S2 E)) (= T2 F)) (= U2 G)) (= V2 H)) (= (- W2 I) (- 1))) (= X2 J)) (= Y2 K)) (= D2 A)) (= (- E2 B) (- 1))) (= F2 C)) (= G2 D)) (= H2 E)) (= I2 F)) (= J2 G)) (= K2 H)) (= (- L2 I) (- 1))) (= (- M2 I) (- 1))) (= S1 A)) (= (- T1 B) (- 1))) (= U1 C)) (= V1 C)) (= X1 F)) (= Y1 G)) (= Z1 H)) (= (- A2 I) (- 1))) (= B2 J)) (= C2 K)) (= H1 A)) (= (- I1 B) (- 1))) (= J1 C)) (= K1 C)) (= L1 W1)) (= M1 F)) (= N1 G)) (= O1 H)) (= (- P1 I) (- 1))) (= (- Q1 I) (- 1))) (= R1 N2)) (= W A)) (= (- X B) (- 1))) (= Y C)) (= (+ Z (- (* (- 1) B) A)) (- 1))) (= B1 F)) (= C1 G)) (= D1 H)) (= (- E1 I) (- 1))) (= F1 J)) (= G1 K)) (= L A)) (= (- M B) (- 1))) (= N C)) (= (+ O (- (* (- 1) B) A)) (- 1))) (= P A1)) (= Q F)) (= R G)) (= S H)) (= (- T I) (- 1))) (= (- U I) (- 1))) (= V N2)) (INV_MAIN_1 A B C D E F G H I J K))))
(assert (forall ((A Int) (B Int) (C Int) (D Int) (E Int) (F Int) (G Int) (H Int) (I Int) (J Int) (K Int) (L Int) (M Int) (N Int) (O Int) (P Int) (Q Int) (R Int) (S Int) (T Int) (U Int) (V Int) (W Int) (X Int) (Y Int) (Z Int) (A1 Int) (B1 Int) (C1 Int) (D1 Int) (E1 Int) (F1 Int) (G1 Int) (H1 Int) (I1 Int) (J1 Int) (K1 Int) (L1 Int) (M1 Int) (N1 Int) (O1 Int) (P1 Int) (Q1 Int) (R1 Int) (S1 Int) (T1 Int) (U1 Int) (V1 Int) (W1 Int) (X1 Int) (Y1 Int) (Z1 Int) (A2 Int) (B2 Int) (C2 Int) (D2 Int) (E2 Int) (F2 Int) (G2 Int) (H2 Int) (I2 Int) (J2 Int) (K2 Int) (L2 Int) (M2 Int) (N2 Int) (O2 Int) (P2 Int) (Q2 Int) (R2 Int) (S2 Int) (T2 Int) (U2 Int) (V2 Int) (W2 Int) (X2 Int) (Y2 Int))(=> (and (and (and (and (and (and (and (and (and (and (and (and (and (and (and (and (and (and (and (and (and (and (and (and (and (and (and (and (and (and (and (and (and (and (and (and (and (and (and (and (and (and (and (and (and (and (and (and (and (and (and (and (and (and (and (and (and (and (and (and (and (and (and (and (and (and (and (and (and (and (and (and (and (and (and (INV_MAIN_1 L M N O P Q R S T U V) (INV_MAIN_1 W X Y Z A1 B1 C1 D1 E1 F1 G1)) (INV_MAIN_1 H1 I1 J1 K1 L1 M1 N1 O1 P1 Q1 R1)) (INV_MAIN_1 S1 T1 U1 V1 W1 X1 Y1 Z1 A2 B2 C2)) (INV_MAIN_1 D2 E2 F2 G2 H2 I2 J2 K2 L2 M2 N2)) (INV_MAIN_1 O2 P2 Q2 R2 S2 T2 U2 V2 W2 X2 Y2)) (not (and (= (+ D (- (* (- 1) B) A)) (- 1)) (not (= A1 E))))) (not (and (= D C) (not (= W1 E))))) (not (and (= J I) (not (= K F))))) (not (= (+ C (- (* (- 1) B) A)) (- 1)))) (not (= A1 0))) (not (= A1 W1))) (= O2 A)) (= (- P2 B) (- 1))) (= Q2 C)) (= R2 D)) (= S2 E)) (= T2 F)) (= U2 G)) (= V2 H)) (= W2 I)) (= X2 J)) (= Y2 K)) (= D2 A)) (= (- E2 B) (- 1))) (= F2 C)) (= G2 D)) (= H2 E)) (= I2 F)) (= J2 G)) (= K2 H)) (= L2 I)) (= M2 I)) (= N2 F)) (= S1 A)) (= (- T1 B) (- 1))) (= U1 C)) (= V1 C)) (= X1 F)) (= Y1 G)) (= Z1 H)) (= A2 I)) (= B2 J)) (= C2 K)) (= H1 A)) (= (- I1 B) (- 1))) (= J1 C)) (= K1 C)) (= L1 W1)) (= M1 F)) (= N1 G)) (= O1 H)) (= P1 I)) (= Q1 I)) (= R1 F)) (= W A)) (= (- X B) (- 1))) (= Y C)) (= (+ Z (- (* (- 1) B) A)) (- 1))) (= B1 F)) (= C1 G)) (= D1 H)) (= E1 I)) (= F1 J)) (= G1 K)) (= L A)) (= (- M B) (- 1))) (= N C)) (= (+ O (- (* (- 1) B) A)) (- 1))) (= P A1)) (= Q F)) (= R G)) (= S H)) (= T I)) (= U I)) (= V F)) (INV_MAIN_1 A B C D E F G H I J K))))
(assert (forall ((A Int) (B Int) (C Int) (D Int) (E Int) (F Int) (G Int) (H Int) (I Int) (J Int) (K Int) (L Int) (M Int) (N Int) (O Int) (P Int) (Q Int) (R Int) (S Int) (T Int) (U Int) (V Int) (W Int) (X Int) (Y Int) (Z Int) (A1 Int) (B1 Int) (C1 Int) (D1 Int) (E1 Int) (F1 Int) (G1 Int) (H1 Int) (I1 Int) (J1 Int) (K1 Int) (L1 Int) (M1 Int) (N1 Int) (O1 Int) (P1 Int) (Q1 Int) (R1 Int) (S1 Int) (T1 Int) (U1 Int) (V1 Int) (W1 Int) (X1 Int) (Y1 Int) (Z1 Int) (A2 Int) (B2 Int) (C2 Int) (D2 Int) (E2 Int) (F2 Int) (G2 Int) (H2 Int) (I2 Int) (J2 Int) (K2 Int) (L2 Int) (M2 Int) (N2 Int) (O2 Int) (P2 Int) (Q2 Int) (R2 Int) (S2 Int) (T2 Int) (U2 Int) (V2 Int) (W2 Int) (X2 Int) (Y2 Int))(=> (and (and (and (and (and (and (and (and (and (and (and (and (and (and (and (and (and (and (and (and (and (and (and (and (and (and (and (and (and (and (and (and (and (and (and (and (and (and (and (and (and (and (and (and (and (and (and (and (and (and (and (and (and (and (and (and (and (and (and (and (and (and (and (and (and (and (and (and (and (and (and (and (and (and (and (INV_MAIN_1 L M N O P Q R S T U V) (INV_MAIN_1 W X Y Z A1 B1 C1 D1 E1 F1 G1)) (INV_MAIN_1 H1 I1 J1 K1 L1 M1 N1 O1 P1 Q1 R1)) (INV_MAIN_1 S1 T1 U1 V1 W1 X1 Y1 Z1 A2 B2 C2)) (INV_MAIN_1 D2 E2 F2 G2 H2 I2 J2 K2 L2 M2 N2)) (INV_MAIN_1 O2 P2 Q2 R2 S2 T2 U2 V2 W2 X2 Y2)) (not (and (= (+ D (- (* (- 1) B) A)) (- 1)) (not (= A1 E))))) (not (and (= D C) (not (= W1 E))))) (not (and (= J I) (not (= K 0))))) (not (= (+ C (- (* (- 1) B) A)) (- 1)))) (not (= A1 0))) (not (= A1 W1))) (= O2 A)) (= (- P2 B) (- 1))) (= Q2 C)) (= R2 D)) (= S2 E)) (= T2 F)) (= U2 G)) (= V2 H)) (= W2 I)) (= X2 J)) (= Y2 K)) (= D2 A)) (= (- E2 B) (- 1))) (= F2 C)) (= G2 D)) (= H2 E)) (= I2 F)) (= J2 G)) (= K2 H)) (= L2 I)) (= M2 I)) (= N2 0)) (= S1 A)) (= (- T1 B) (- 1))) (= U1 C)) (= V1 C)) (= X1 F)) (= Y1 G)) (= Z1 H)) (= A2 I)) (= B2 J)) (= C2 K)) (= H1 A)) (= (- I1 B) (- 1))) (= J1 C)) (= K1 C)) (= L1 W1)) (= M1 F)) (= N1 G)) (= O1 H)) (= P1 I)) (= Q1 I)) (= R1 0)) (= W A)) (= (- X B) (- 1))) (= Y C)) (= (+ Z (- (* (- 1) B) A)) (- 1))) (= B1 F)) (= C1 G)) (= D1 H)) (= E1 I)) (= F1 J)) (= G1 K)) (= L A)) (= (- M B) (- 1))) (= N C)) (= (+ O (- (* (- 1) B) A)) (- 1))) (= P A1)) (= Q F)) (= R G)) (= S H)) (= T I)) (= U I)) (= V 0)) (INV_MAIN_1 A B C D E F G H I J K))))
(assert (forall ((A Int) (B Int) (C Int) (D Int) (E Int) (F Int) (G Int) (H Int) (I Int) (J Int) (K Int) (L Int) (M Int) (N Int) (O Int) (P Int) (Q Int) (R Int) (S Int) (T Int) (U Int) (V Int) (W Int) (X Int) (Y Int) (Z Int) (A1 Int) (B1 Int) (C1 Int) (D1 Int) (E1 Int) (F1 Int) (G1 Int) (H1 Int) (I1 Int) (J1 Int) (K1 Int) (L1 Int) (M1 Int) (N1 Int) (O1 Int) (P1 Int) (Q1 Int) (R1 Int) (S1 Int) (T1 Int) (U1 Int) (V1 Int) (W1 Int) (X1 Int) (Y1 Int) (Z1 Int) (A2 Int) (B2 Int) (C2 Int))(=> (and (and (and (and (and (and (and (and (and (and (and (and (and (and (and (and (and (and (and (and (and (and (and (and (and (and (and (and (and (and (and (and (and (and (and (and (and (and (and (and (and (and (and (and (and (and (and (and (and (and (INV_MAIN_1 L M N O P Q R S T U V) (INV_MAIN_1 W X Y Z A1 B1 C1 D1 E1 F1 G1)) (INV_MAIN_1 H1 I1 J1 K1 L1 M1 N1 O1 P1 Q1 R1)) (INV_MAIN_1 S1 T1 U1 V1 W1 X1 Y1 Z1 A2 B2 C2)) (not (and (= (+ D (- (* (- 1) B) A)) 0) (not (= E 0))))) (not (and (= (- J I) (- 1)) (not (= R1 K))))) (not (= R1 0))) (not (= R1 F))) (= S1 A)) (= T1 B)) (= U1 C)) (= V1 D)) (= W1 E)) (= X1 F)) (= Y1 G)) (= Z1 H)) (= (- A2 I) (- 1))) (= B2 J)) (= C2 K)) (= H1 A)) (= I1 B)) (= J1 C)) (= K1 D)) (= L1 E)) (= M1 F)) (= N1 G)) (= O1 H)) (= (- P1 I) (- 1))) (= (- Q1 I) (- 1))) (= W A)) (= X B)) (= Y C)) (= (+ Z (- (* (- 1) B) A)) 0)) (= A1 0)) (= B1 F)) (= C1 G)) (= D1 H)) (= (- E1 I) (- 1))) (= F1 J)) (= G1 K)) (= L A)) (= M B)) (= N C)) (= (+ O (- (* (- 1) B) A)) 0)) (= P 0)) (= Q F)) (= R G)) (= S H)) (= (- T I) (- 1))) (= (- U I) (- 1))) (= V R1)) (INV_MAIN_1 A B C D E F G H I J K))))
(assert (forall ((A Int) (B Int) (C Int) (D Int) (E Int) (F Int) (G Int) (H Int) (I Int) (J Int) (K Int) (L Int) (M Int) (N Int) (O Int) (P Int) (Q Int) (R Int) (S Int) (T Int) (U Int) (V Int) (W Int) (X Int) (Y Int) (Z Int) (A1 Int) (B1 Int) (C1 Int) (D1 Int) (E1 Int) (F1 Int) (G1 Int) (H1 Int) (I1 Int) (J1 Int) (K1 Int) (L1 Int) (M1 Int) (N1 Int) (O1 Int) (P1 Int) (Q1 Int) (R1 Int) (S1 Int) (T1 Int) (U1 Int) (V1 Int) (W1 Int) (X1 Int) (Y1 Int) (Z1 Int) (A2 Int) (B2 Int) (C2 Int) (D2 Int) (E2 Int) (F2 Int) (G2 Int) (H2 Int) (I2 Int) (J2 Int) (K2 Int) (L2 Int) (M2 Int) (N2 Int) (O2 Int) (P2 Int) (Q2 Int) (R2 Int) (S2 Int) (T2 Int) (U2 Int) (V2 Int) (W2 Int) (X2 Int) (Y2 Int))(=> (and (and (and (and (and (and (and (and (and (and (and (and (and (and (and (and (and (and (and (and (and (and (and (and (and (and (and (and (and (and (and (and (and (and (and (and (and (and (and (and (and (and (and (and (and (and (and (and (and (and (and (and (and (and (and (and (and (and (and (and (and (and (and (and (and (and (and (and (and (and (and (and (and (and (INV_MAIN_1 L M N O P Q R S T U V) (INV_MAIN_1 W X Y Z A1 B1 C1 D1 E1 F1 G1)) (INV_MAIN_1 H1 I1 J1 K1 L1 M1 N1 O1 P1 Q1 R1)) (INV_MAIN_1 S1 T1 U1 V1 W1 X1 Y1 Z1 A2 B2 C2)) (INV_MAIN_1 D2 E2 F2 G2 H2 I2 J2 K2 L2 M2 N2)) (INV_MAIN_1 O2 P2 Q2 R2 S2 T2 U2 V2 W2 X2 Y2)) (not (and (= (+ D (- (* (- 1) B) A)) 0) (not (= W1 E))))) (not (and (= D C) (not (= W1 E))))) (not (and (= (- J I) (- 1)) (not (= N2 K))))) (not (= N2 0))) (not (= N2 F))) (= O2 A)) (= P2 B)) (= Q2 C)) (= R2 D)) (= S2 E)) (= T2 F)) (= U2 G)) (= V2 H)) (= (- W2 I) (- 1))) (= X2 J)) (= Y2 K)) (= D2 A)) (= E2 B)) (= F2 C)) (= G2 D)) (= H2 E)) (= I2 F)) (= J2 G)) (= K2 H)) (= (- L2 I) (- 1))) (= (- M2 I) (- 1))) (= S1 A)) (= T1 B)) (= U1 C)) (= V1 C)) (= X1 F)) (= Y1 G)) (= Z1 H)) (= (- A2 I) (- 1))) (= B2 J)) (= C2 K)) (= H1 A)) (= I1 B)) (= J1 C)) (= K1 C)) (= L1 W1)) (= M1 F)) (= N1 G)) (= O1 H)) (= (- P1 I) (- 1))) (= (- Q1 I) (- 1))) (= R1 N2)) (= W A)) (= X B)) (= Y C)) (= (+ Z (- (* (- 1) B) A)) 0)) (= A1 W1)) (= B1 F)) (= C1 G)) (= D1 H)) (= (- E1 I) (- 1))) (= F1 J)) (= G1 K)) (= L A)) (= M B)) (= N C)) (= (+ O (- (* (- 1) B) A)) 0)) (= P W1)) (= Q F)) (= R G)) (= S H)) (= (- T I) (- 1))) (= (- U I) (- 1))) (= V N2)) (INV_MAIN_1 A B C D E F G H I J K))))
(check-sat)
